\ENCODING=ISO-8859-1
\Problem name: ilog.cplex

Minimize
 obj1: 109187 x1 + 103374 x2 + 100237 x3 + 105944 x4 + 108321 x5 + 101917 x6
       + 107003 x7 + 97813 x8 + 90503 x9 + 90778 x10 + 99850 x11 + 93279 x12
       + 109010 x13 + 103315 x14 + 109855 x15 + 98835 x16 + 104681 x17
       + 92251 x18 + 101014 x19 + 100962 x20 + 104337 x21 + 90117 x22
       + 97050 x23 + 91772 x24 + 95851 x25 + 103123 x26 + 102296 x27
       + 98643 x28 + 102615 x29 + 105241 x30 + 90954 x31 + 104778 x32
       + 105990 x33 + 98429 x34 + 92708 x35 + 106955 x36 + 90714 x37
       + 109563 x38 + 106869 x39 + 91794 x40 + 95312 x41 + 105033 x42
       + 92104 x43 + 102503 x44 + 97234 x45 + 99888 x46 + 104281 x47
       + 94325 x48 + 90729 x49 + 99995 x50 + 102901 x51 + 98887 x52 + 94535 x53
       + 94971 x54 + 95901 x55 + 104310 x56 + 95144 x57 + 103820 x58
       + 108291 x59 + 91758 x60 + 94101 x61 + 93943 x62 + 98843 x63 + 95749 x64
       + 90287 x65 + 96054 x66 + 109270 x67 + 96939 x68 + 98284 x69
       + 104887 x70 + 109767 x71 + 100221 x72 + 103024 x73 + 99274 x74
       + 103669 x75 + 93828 x76 + 109665 x77 + 92943 x78 + 104874 x79
       + 109524 x80 + 106472 x81 + 96882 x82 + 93831 x83 + 95664 x84
       + 101014 x85 + 108664 x86 + 95801 x87 + 97297 x88 + 108107 x89
       + 99313 x90 + 108491 x91 + 90445 x92 + 101722 x93 + 104094 x94
       + 95264 x95 + 101340 x96 + 92469 x97 + 100023 x98 + 94864 x99
       + 95602 x100 + 107234 x101 + 108503 x102 + 90783 x103 + 94117 x104
       + 92776 x105 + 106170 x106 + 101555 x107 + 98822 x108 + 102093 x109
       + 108481 x110 + 106320 x111 + 98460 x112 + 93995 x113 + 103863 x114
       + 105945 x115 + 90176 x116 + 92260 x117 + 90455 x118 + 93426 x119
       + 93027 x120 + 95608 x121 + 107973 x122 + 107973 x123 + 95413 x124
       + 103805 x125 + 101206 x126 + 104566 x127 + 90778 x128 + 101291 x129
       + 104426 x130 + 97749 x131 + 97968 x132 + 109620 x133 + 101636 x134
       + 101104 x135 + 93612 x136 + 100449 x137 + 98859 x138 + 107131 x139
       + 100469 x140 + 91966 x141 + 101551 x142 + 96202 x143 + 97886 x144
       + 93355 x145 + 102764 x146 + 107807 x147 + 108349 x148 + 94280 x149
       + 95793 x150 + 108852 x151 + 108547 x152 + 104573 x153 + 101084 x154
       + 98682 x155 + 94472 x156 + 103175 x157 + 109377 x158 + 95051 x159
       + 94200 x160 + 106144 x161 + 109820 x162 + 98702 x163 + 101105 x164
       + 99818 x165 + 109367 x166 + 101628 x167 + 94027 x168 + 98125 x169
       + 103432 x170 + 100403 x171 + 108021 x172 + 92361 x173 + 105484 x174
       + 90854 x175 + 91930 x176 + 105855 x177 + 97538 x178 + 105463 x179
       + 95078 x180 + 91104 x181 + 107874 x182 + 103700 x183 + 96173 x184
       + 91079 x185 + 101003 x186 + 109858 x187 + 98957 x188 + 96054 x189
       + 94063 x190 + 92980 x191 + 91157 x192 + 102689 x193 + 93756 x194
       + 99115 x195 + 96002 x196 + 103047 x197 + 98385 x198 + 97431 x199
       + 98843 x200 + 105361 x201 + 99910 x202 + 98774 x203 + 106152 x204
       + 102384 x205 + 93674 x206 + 105330 x207 + 100588 x208 + 107512 x209
       + 95861 x210 + 97225 x211 + 107876 x212 + 109561 x213 + 96805 x214
       + 92540 x215 + 95775 x216 + 98248 x217 + 92364 x218 + 95279 x219
       + 104517 x220 + 98592 x221 + 98836 x222 + 93357 x223 + 99974 x224
       + 103201 x225 + 108622 x226 + 90841 x227 + 93451 x228 + 93886 x229
       + 96043 x230 + 91524 x231 + 94166 x232 + 102984 x233 + 99937 x234
       + 107666 x235 + 107980 x236 + 104339 x237 + 92474 x238 + 95094 x239
       + 99131 x240 + 104022 x241 + 92111 x242 + 93838 x243 + 90433 x244
       + 101728 x245 + 92650 x246 + 102098 x247 + 91853 x248 + 95160 x249
       + 189430 x250 + 214753 x251 + 204050 x252 + 189565 x253 + 202922 x254
       + 206371 x255 + 189658 x256 + 212777 x257 + 191267 x258 + 201779 x259
       + 194411 x260 + 187556 x261 + 203476 x262 + 197743 x263 + 208558 x264
       + 202102 x265 + 200878 x266 + 215816 x267 + 201759 x268 + 219498 x269
       + 215455 x270 + 207967 x271 + 213392 x272 + 212892 x273 + 207199 x274
       + 204859 x275 + 201533 x276 + 189129 x277 + 188287 x278 + 194167 x279
       + 196399 x280 + 217781 x281 + 193048 x282 + 213871 x283 + 201274 x284
       + 181912 x285 + 196736 x286 + 196734 x287 + 204920 x288 + 200108 x289
       + 214007 x290 + 207206 x291 + 214198 x292 + 216191 x293 + 219612 x294
       + 190817 x295 + 184091 x296 + 193714 x297 + 189119 x298 + 208631 x299
       + 79812 x300
Subject To
 c1:   - x1 - x4 - x7 - x8 - x13 + x15 + x16 + x21 + x22 - x23 - x35 + x44
       - x50  = 0
 c2:   - x51 - x54 - x57 - x58 - x63 + x65 + x66 + x71 + x72 - x73 - x85 + x94
       - x100  = 0
 c3:   - x101 - x104 - x107 - x108 - x113 + x115 + x116 + x121 + x122 - x123
       - x135 + x144 - x150  = 0
 c4:   - x151 - x154 - x157 - x158 - x163 + x165 + x166 + x171 + x172 - x173
       - x185 + x194 - x200  = 0
 c5:   - x201 - x204 - x207 - x208 - x213 + x215 + x216 + x221 + x222 - x223
       - x235 + x244 - x250  = 1
 c6:   - x2 - x3 + x19 + x23 - x32 - x37 + x41 - x43 - x48  = 0
 c7:   - x52 - x53 + x69 + x73 - x82 - x87 + x91 - x93 - x98  = 0
 c8:   - x102 - x103 + x119 + x123 - x132 - x137 + x141 - x143 - x148  = 0
 c9:   - x152 - x153 + x169 + x173 - x182 - x187 + x191 - x193 - x198  = 0
 c10:  - x202 - x203 + x219 + x223 - x232 - x237 + x241 - x243 - x248  = 0
 c11:  x4 - x6 - x14 + x17 + x18 - x19 + x24 - x25 + x37 - x39  = 0
 c12:  x54 - x56 - x64 + x67 + x68 - x69 + x74 - x75 + x87 - x89  = 0
 c13:  x104 - x106 - x114 + x117 + x118 - x119 + x124 - x125 + x137 - x139  = 0
 c14:  x154 - x156 - x164 + x167 + x168 - x169 + x174 - x175 + x187 - x189  = 0
 c15:  x204 - x206 - x214 + x217 + x218 - x219 + x224 - x225 + x237 - x239  = 0
 c16:  x3 + x11 + x12 - x21 - x26 + x27 + x31 - x33 + x35 + x42 + x47  = 1
 c17:  x53 + x61 + x62 - x71 - x76 + x77 + x81 - x83 + x85 + x92 + x97  = 0
 c18:  x103 + x111 + x112 - x121 - x126 + x127 + x131 - x133 + x135 + x142
       + x147  = 0
 c19:  x153 + x161 + x162 - x171 - x176 + x177 + x181 - x183 + x185 + x192
       + x197  = 0
 c20:  x203 + x211 + x212 - x221 - x226 + x227 + x231 - x233 + x235 + x242
       + x247  = 0
 c21:  x13 - x15 - x18 + x29 - x31 + x32 + x33 + x36 - x38 - x40 - x41 + x45
       + x46  = 0
 c22:  x63 - x65 - x68 + x79 - x81 + x82 + x83 + x86 - x88 - x90 - x91 + x95
       + x96  = 1
 c23:  x113 - x115 - x118 + x129 - x131 + x132 + x133 + x136 - x138 - x140
       - x141 + x145 + x146  = -1
 c24:  x163 - x165 - x168 + x179 - x181 + x182 + x183 + x186 - x188 - x190
       - x191 + x195 + x196  = -1
 c25:  x213 - x215 - x218 + x229 - x231 + x232 + x233 + x236 - x238 - x240
       - x241 + x245 + x246  = 0
 c26:  x8 - x12 + x14 - x16 + x28 - x30 - x36 + x43  = 0
 c27:  x58 - x62 + x64 - x66 + x78 - x80 - x86 + x93  = 0
 c28:  x108 - x112 + x114 - x116 + x128 - x130 - x136 + x143  = 0
 c29:  x158 - x162 + x164 - x166 + x178 - x180 - x186 + x193  = 0
 c30:  x208 - x212 + x214 - x216 + x228 - x230 - x236 + x243  = 0
 c31:  x6 - x9 + x10 - x17 + x26 - x34 - x44 - x47 - x49 + x50  = 0
 c32:  x56 - x59 + x60 - x67 + x76 - x84 - x94 - x97 - x99 + x100  = 0
 c33:  x106 - x109 + x110 - x117 + x126 - x134 - x144 - x147 - x149 + x150  = 0
 c34:  x156 - x159 + x160 - x167 + x176 - x184 - x194 - x197 - x199 + x200  = 0
 c35:  x206 - x209 + x210 - x217 + x226 - x234 - x244 - x247 - x249 + x250  = 0
 c36:  x1 + x2 - x5 + x25 - x27 - x28 - x29 + x30 + x49  = 0
 c37:  x51 + x52 - x55 + x75 - x77 - x78 - x79 + x80 + x99  = -1
 c38:  x101 + x102 - x105 + x125 - x127 - x128 - x129 + x130 + x149  = 0
 c39:  x151 + x152 - x155 + x175 - x177 - x178 - x179 + x180 + x199  = 0
 c40:  x201 + x202 - x205 + x225 - x227 - x228 - x229 + x230 + x249  = 0
 c41:  x5 + x7 + x9 - x11 - x20 - x22 + x40 - x45 + x48  = -1
 c42:  x55 + x57 + x59 - x61 - x70 - x72 + x90 - x95 + x98  = 0
 c43:  x105 + x107 + x109 - x111 - x120 - x122 + x140 - x145 + x148  = 0
 c44:  x155 + x157 + x159 - x161 - x170 - x172 + x190 - x195 + x198  = 1
 c45:  x205 + x207 + x209 - x211 - x220 - x222 + x240 - x245 + x248  = 0
 c46:  - x10 + x20 - x24 + x34 + x38 + x39 - x42 - x46  = 0
 c47:  - x60 + x70 - x74 + x84 + x88 + x89 - x92 - x96  = 0
 c48:  - x110 + x120 - x124 + x134 + x138 + x139 - x142 - x146  = 1
 c49:  - x160 + x170 - x174 + x184 + x188 + x189 - x192 - x196  = 0
 c50:  - x210 + x220 - x224 + x234 + x238 + x239 - x242 - x246  = -1
 c51:  4 x1 + 4 x51 + 4 x101 + 4 x151 + 4 x201 - 11 x251 <= 0
 c52:  4 x2 + 4 x52 + 4 x102 + 4 x152 + 4 x202 - 9 x252 <= 0
 c53:  4 x3 + 4 x53 + 4 x103 + 4 x153 + 4 x203 - 10 x253 <= 0
 c54:  4 x4 + 4 x54 + 4 x104 + 4 x154 + 4 x204 - 10 x254 <= 0
 c55:  4 x5 + 4 x55 + 4 x105 + 4 x155 + 4 x205 - 10 x255 <= 0
 c56:  4 x6 + 4 x56 + 4 x106 + 4 x156 + 4 x206 - 10 x256 <= 0
 c57:  4 x7 + 4 x57 + 4 x107 + 4 x157 + 4 x207 - 11 x257 <= 0
 c58:  4 x8 + 4 x58 + 4 x108 + 4 x158 + 4 x208 - 9 x258 <= 0
 c59:  4 x9 + 4 x59 + 4 x109 + 4 x159 + 4 x209 - 11 x259 <= 0
 c60:  4 x10 + 4 x60 + 4 x110 + 4 x160 + 4 x210 - 10 x260 <= 0
 c61:  4 x11 + 4 x61 + 4 x111 + 4 x161 + 4 x211 - 10 x261 <= 0
 c62:  4 x12 + 4 x62 + 4 x112 + 4 x162 + 4 x212 - 11 x262 <= 0
 c63:  4 x13 + 4 x63 + 4 x113 + 4 x163 + 4 x213 - 10 x263 <= 0
 c64:  4 x14 + 4 x64 + 4 x114 + 4 x164 + 4 x214 - 10 x264 <= 0
 c65:  4 x15 + 4 x65 + 4 x115 + 4 x165 + 4 x215 - 9 x265 <= 0
 c66:  4 x16 + 4 x66 + 4 x116 + 4 x166 + 4 x216 - 11 x266 <= 0
 c67:  4 x17 + 4 x67 + 4 x117 + 4 x167 + 4 x217 - 10 x267 <= 0
 c68:  4 x18 + 4 x68 + 4 x118 + 4 x168 + 4 x218 - 10 x268 <= 0
 c69:  4 x19 + 4 x69 + 4 x119 + 4 x169 + 4 x219 - 9 x269 <= 0
 c70:  4 x20 + 4 x70 + 4 x120 + 4 x170 + 4 x220 - 10 x270 <= 0
 c71:  4 x21 + 4 x71 + 4 x121 + 4 x171 + 4 x221 - 10 x271 <= 0
 c72:  4 x22 + 4 x72 + 4 x122 + 4 x172 + 4 x222 - 10 x272 <= 0
 c73:  4 x23 + 4 x73 + 4 x123 + 4 x173 + 4 x223 - 10 x273 <= 0
 c74:  4 x24 + 4 x74 + 4 x124 + 4 x174 + 4 x224 - 9 x274 <= 0
 c75:  4 x25 + 4 x75 + 4 x125 + 4 x175 + 4 x225 - 10 x275 <= 0
 c76:  4 x26 + 4 x76 + 4 x126 + 4 x176 + 4 x226 - 11 x276 <= 0
 c77:  4 x27 + 4 x77 + 4 x127 + 4 x177 + 4 x227 - 11 x277 <= 0
 c78:  4 x28 + 4 x78 + 4 x128 + 4 x178 + 4 x228 - 9 x278 <= 0
 c79:  4 x29 + 4 x79 + 4 x129 + 4 x179 + 4 x229 - 10 x279 <= 0
 c80:  4 x30 + 4 x80 + 4 x130 + 4 x180 + 4 x230 - 10 x280 <= 0
 c81:  4 x31 + 4 x81 + 4 x131 + 4 x181 + 4 x231 - 10 x281 <= 0
 c82:  4 x32 + 4 x82 + 4 x132 + 4 x182 + 4 x232 - 10 x282 <= 0
 c83:  4 x33 + 4 x83 + 4 x133 + 4 x183 + 4 x233 - 11 x283 <= 0
 c84:  4 x34 + 4 x84 + 4 x134 + 4 x184 + 4 x234 - 9 x284 <= 0
 c85:  4 x35 + 4 x85 + 4 x135 + 4 x185 + 4 x235 - 10 x285 <= 0
 c86:  4 x36 + 4 x86 + 4 x136 + 4 x186 + 4 x236 - 10 x286 <= 0
 c87:  4 x37 + 4 x87 + 4 x137 + 4 x187 + 4 x237 - 9 x287 <= 0
 c88:  4 x38 + 4 x88 + 4 x138 + 4 x188 + 4 x238 - 10 x288 <= 0
 c89:  4 x39 + 4 x89 + 4 x139 + 4 x189 + 4 x239 - 10 x289 <= 0
 c90:  4 x40 + 4 x90 + 4 x140 + 4 x190 + 4 x240 - 10 x290 <= 0
 c91:  4 x41 + 4 x91 + 4 x141 + 4 x191 + 4 x241 - 11 x291 <= 0
 c92:  4 x42 + 4 x92 + 4 x142 + 4 x192 + 4 x242 - 9 x292 <= 0
 c93:  4 x43 + 4 x93 + 4 x143 + 4 x193 + 4 x243 - 11 x293 <= 0
 c94:  4 x44 + 4 x94 + 4 x144 + 4 x194 + 4 x244 - 9 x294 <= 0
 c95:  4 x45 + 4 x95 + 4 x145 + 4 x195 + 4 x245 - 10 x295 <= 0
 c96:  4 x46 + 4 x96 + 4 x146 + 4 x196 + 4 x246 - 10 x296 <= 0
 c97:  4 x47 + 4 x97 + 4 x147 + 4 x197 + 4 x247 - 10 x297 <= 0
 c98:  4 x48 + 4 x98 + 4 x148 + 4 x198 + 4 x248 - 9 x298 <= 0
 c99:  4 x49 + 4 x99 + 4 x149 + 4 x199 + 4 x249 - 11 x299 <= 0
 c100: 4 x50 + 4 x100 + 4 x150 + 4 x200 + 4 x250 - 10 x300 <= 0
Bounds
 0 <= x1 <= 1
 0 <= x2 <= 1
 0 <= x3 <= 1
 0 <= x4 <= 1
 0 <= x5 <= 1
 0 <= x6 <= 1
 0 <= x7 <= 1
 0 <= x8 <= 1
 0 <= x9 <= 1
 0 <= x10 <= 1
 0 <= x11 <= 1
 0 <= x12 <= 1
 0 <= x13 <= 1
 0 <= x14 <= 1
 0 <= x15 <= 1
 0 <= x16 <= 1
 0 <= x17 <= 1
 0 <= x18 <= 1
 0 <= x19 <= 1
 0 <= x20 <= 1
 0 <= x21 <= 1
 0 <= x22 <= 1
 0 <= x23 <= 1
 0 <= x24 <= 1
 0 <= x25 <= 1
 0 <= x26 <= 1
 0 <= x27 <= 1
 0 <= x28 <= 1
 0 <= x29 <= 1
 0 <= x30 <= 1
 0 <= x31 <= 1
 0 <= x32 <= 1
 0 <= x33 <= 1
 0 <= x34 <= 1
 0 <= x35 <= 1
 0 <= x36 <= 1
 0 <= x37 <= 1
 0 <= x38 <= 1
 0 <= x39 <= 1
 0 <= x40 <= 1
 0 <= x41 <= 1
 0 <= x42 <= 1
 0 <= x43 <= 1
 0 <= x44 <= 1
 0 <= x45 <= 1
 0 <= x46 <= 1
 0 <= x47 <= 1
 0 <= x48 <= 1
 0 <= x49 <= 1
 0 <= x50 <= 1
 0 <= x51 <= 1
 0 <= x52 <= 1
 0 <= x53 <= 1
 0 <= x54 <= 1
 0 <= x55 <= 1
 0 <= x56 <= 1
 0 <= x57 <= 1
 0 <= x58 <= 1
 0 <= x59 <= 1
 0 <= x60 <= 1
 0 <= x61 <= 1
 0 <= x62 <= 1
 0 <= x63 <= 1
 0 <= x64 <= 1
 0 <= x65 <= 1
 0 <= x66 <= 1
 0 <= x67 <= 1
 0 <= x68 <= 1
 0 <= x69 <= 1
 0 <= x70 <= 1
 0 <= x71 <= 1
 0 <= x72 <= 1
 0 <= x73 <= 1
 0 <= x74 <= 1
 0 <= x75 <= 1
 0 <= x76 <= 1
 0 <= x77 <= 1
 0 <= x78 <= 1
 0 <= x79 <= 1
 0 <= x80 <= 1
 0 <= x81 <= 1
 0 <= x82 <= 1
 0 <= x83 <= 1
 0 <= x84 <= 1
 0 <= x85 <= 1
 0 <= x86 <= 1
 0 <= x87 <= 1
 0 <= x88 <= 1
 0 <= x89 <= 1
 0 <= x90 <= 1
 0 <= x91 <= 1
 0 <= x92 <= 1
 0 <= x93 <= 1
 0 <= x94 <= 1
 0 <= x95 <= 1
 0 <= x96 <= 1
 0 <= x97 <= 1
 0 <= x98 <= 1
 0 <= x99 <= 1
 0 <= x100 <= 1
 0 <= x101 <= 1
 0 <= x102 <= 1
 0 <= x103 <= 1
 0 <= x104 <= 1
 0 <= x105 <= 1
 0 <= x106 <= 1
 0 <= x107 <= 1
 0 <= x108 <= 1
 0 <= x109 <= 1
 0 <= x110 <= 1
 0 <= x111 <= 1
 0 <= x112 <= 1
 0 <= x113 <= 1
 0 <= x114 <= 1
 0 <= x115 <= 1
 0 <= x116 <= 1
 0 <= x117 <= 1
 0 <= x118 <= 1
 0 <= x119 <= 1
 0 <= x120 <= 1
 0 <= x121 <= 1
 0 <= x122 <= 1
 0 <= x123 <= 1
 0 <= x124 <= 1
 0 <= x125 <= 1
 0 <= x126 <= 1
 0 <= x127 <= 1
 0 <= x128 <= 1
 0 <= x129 <= 1
 0 <= x130 <= 1
 0 <= x131 <= 1
 0 <= x132 <= 1
 0 <= x133 <= 1
 0 <= x134 <= 1
 0 <= x135 <= 1
 0 <= x136 <= 1
 0 <= x137 <= 1
 0 <= x138 <= 1
 0 <= x139 <= 1
 0 <= x140 <= 1
 0 <= x141 <= 1
 0 <= x142 <= 1
 0 <= x143 <= 1
 0 <= x144 <= 1
 0 <= x145 <= 1
 0 <= x146 <= 1
 0 <= x147 <= 1
 0 <= x148 <= 1
 0 <= x149 <= 1
 0 <= x150 <= 1
 0 <= x151 <= 1
 0 <= x152 <= 1
 0 <= x153 <= 1
 0 <= x154 <= 1
 0 <= x155 <= 1
 0 <= x156 <= 1
 0 <= x157 <= 1
 0 <= x158 <= 1
 0 <= x159 <= 1
 0 <= x160 <= 1
 0 <= x161 <= 1
 0 <= x162 <= 1
 0 <= x163 <= 1
 0 <= x164 <= 1
 0 <= x165 <= 1
 0 <= x166 <= 1
 0 <= x167 <= 1
 0 <= x168 <= 1
 0 <= x169 <= 1
 0 <= x170 <= 1
 0 <= x171 <= 1
 0 <= x172 <= 1
 0 <= x173 <= 1
 0 <= x174 <= 1
 0 <= x175 <= 1
 0 <= x176 <= 1
 0 <= x177 <= 1
 0 <= x178 <= 1
 0 <= x179 <= 1
 0 <= x180 <= 1
 0 <= x181 <= 1
 0 <= x182 <= 1
 0 <= x183 <= 1
 0 <= x184 <= 1
 0 <= x185 <= 1
 0 <= x186 <= 1
 0 <= x187 <= 1
 0 <= x188 <= 1
 0 <= x189 <= 1
 0 <= x190 <= 1
 0 <= x191 <= 1
 0 <= x192 <= 1
 0 <= x193 <= 1
 0 <= x194 <= 1
 0 <= x195 <= 1
 0 <= x196 <= 1
 0 <= x197 <= 1
 0 <= x198 <= 1
 0 <= x199 <= 1
 0 <= x200 <= 1
 0 <= x201 <= 1
 0 <= x202 <= 1
 0 <= x203 <= 1
 0 <= x204 <= 1
 0 <= x205 <= 1
 0 <= x206 <= 1
 0 <= x207 <= 1
 0 <= x208 <= 1
 0 <= x209 <= 1
 0 <= x210 <= 1
 0 <= x211 <= 1
 0 <= x212 <= 1
 0 <= x213 <= 1
 0 <= x214 <= 1
 0 <= x215 <= 1
 0 <= x216 <= 1
 0 <= x217 <= 1
 0 <= x218 <= 1
 0 <= x219 <= 1
 0 <= x220 <= 1
 0 <= x221 <= 1
 0 <= x222 <= 1
 0 <= x223 <= 1
 0 <= x224 <= 1
 0 <= x225 <= 1
 0 <= x226 <= 1
 0 <= x227 <= 1
 0 <= x228 <= 1
 0 <= x229 <= 1
 0 <= x230 <= 1
 0 <= x231 <= 1
 0 <= x232 <= 1
 0 <= x233 <= 1
 0 <= x234 <= 1
 0 <= x235 <= 1
 0 <= x236 <= 1
 0 <= x237 <= 1
 0 <= x238 <= 1
 0 <= x239 <= 1
 0 <= x240 <= 1
 0 <= x241 <= 1
 0 <= x242 <= 1
 0 <= x243 <= 1
 0 <= x244 <= 1
 0 <= x245 <= 1
 0 <= x246 <= 1
 0 <= x247 <= 1
 0 <= x248 <= 1
 0 <= x249 <= 1
 0 <= x250 <= 1
 0 <= x251 <= 1
 0 <= x252 <= 1
 0 <= x253 <= 1
 0 <= x254 <= 1
 0 <= x255 <= 1
 0 <= x256 <= 1
 0 <= x257 <= 1
 0 <= x258 <= 1
 0 <= x259 <= 1
 0 <= x260 <= 1
 0 <= x261 <= 1
 0 <= x262 <= 1
 0 <= x263 <= 1
 0 <= x264 <= 1
 0 <= x265 <= 1
 0 <= x266 <= 1
 0 <= x267 <= 1
 0 <= x268 <= 1
 0 <= x269 <= 1
 0 <= x270 <= 1
 0 <= x271 <= 1
 0 <= x272 <= 1
 0 <= x273 <= 1
 0 <= x274 <= 1
 0 <= x275 <= 1
 0 <= x276 <= 1
 0 <= x277 <= 1
 0 <= x278 <= 1
 0 <= x279 <= 1
 0 <= x280 <= 1
 0 <= x281 <= 1
 0 <= x282 <= 1
 0 <= x283 <= 1
 0 <= x284 <= 1
 0 <= x285 <= 1
 0 <= x286 <= 1
 0 <= x287 <= 1
 0 <= x288 <= 1
 0 <= x289 <= 1
 0 <= x290 <= 1
 0 <= x291 <= 1
 0 <= x292 <= 1
 0 <= x293 <= 1
 0 <= x294 <= 1
 0 <= x295 <= 1
 0 <= x296 <= 1
 0 <= x297 <= 1
 0 <= x298 <= 1
 0 <= x299 <= 1
 0 <= x300 <= 1
Binaries
 x251  x252  x253  x254  x255  x256  x257  x258  x259  x260  x261  x262  x263 
 x264  x265  x266  x267  x268  x269  x270  x271  x272  x273  x274  x275  x276 
 x277  x278  x279  x280  x281  x282  x283  x284  x285  x286  x287  x288  x289 
 x290  x291  x292  x293  x294  x295  x296  x297  x298  x299  x300 
End
